\ENCODING=ISO-8859-1
\Problem name: inst_17_cut_n6

Maximize
 obj1: 100 x0 + 49 x1 + 83 x2 + 67 x3 + 37 x4 + 96 x5
Subject To
 c0:    56 x0 + 24 x1 + 93 x2 + 24 x3 + 98 x4 + 29 x5 + s0 <= 277
 c1:    77 x0 + 56 x1 + 70 x2 + 23 x3 + 87 x4 + 31 x5 + s1 <= 363
 c2:    94 x0 + 80 x1 + 79 x2 + 57 x3 + 67 x4 + 55 x5 + s2 <= 236
 c3:    83 x0 + 70 x1 + 91 x2 + 72 x3 + 27 x4 + 46 x5 + s3 <= 482
 c4:    69 x0 + 16 x1 + 48 x2 + 67 x3 + 33 x4 + 26 x5 + s4 <= 521
 c5:    69 x0 + 70 x1 + 31 x2 + 18 x3 + 5 x4 + 11 x5 + s5 <= 468
 c6:    68 x0 + 21 x1 + 22 x2 + 85 x3 + 72 x4 + 100 x5 + s6 <= 331
 c7:    88 x0 + 9 x1 + 68 x2 + 100 x3 + 37 x4 + 62 x5 + s7 <= 81
 c8:    78 x0 + 2 x1 + 95 x2 + 87 x3 + 28 x4 + 87 x5 + s8 <= 514
 c9:    14 x0 + 86 x1 + 77 x2 + 30 x3 + 55 x4 + 70 x5 + s9 <= 39
 c10:   44 x0 + 37 x1 + 33 x2 + 67 x3 + 29 x4 + 35 x5 + s10 <= 391
 c11:   56 x0 + 97 x1 + 59 x2 + 34 x3 + 32 x4 + 79 x5 + s11 <= 66
 cut_1: 32 x0 + 27 x1 + 28 x2 + 28 x3 + 15 x4 + 33 x5 <= 33
 cut_2: 99 x0 + 63 x1 + 85 x2 + 95 x3 + 46 x4 + 93 x5 <= 99
 cut_3: 82 x0 + 34 x1 + 67 x2 + 84 x3 + 36 x4 + 69 x5 <= 79
 cut_4: 93 x0 + 38 x1 + 76 x2 + 96 x3 + 41 x4 + 78 x5 <= 90
 cut_5: 107 x0 + 63 x1 + 91 x2 + 104 x3 + 49 x4 + 98 x5 <= 106
 cut_6: 107 x0 + 97 x1 + 97 x2 + 93 x3 + 53 x4 + 113 x5 <= 112
Bounds
 0 <= x0 <= 1
 0 <= x1 <= 1
 0 <= x2 <= 1
 0 <= x3 <= 1
 0 <= x4 <= 1
 0 <= x5 <= 1
End
